500
    1    45    35
    2    54    44
    3    36    26
    4    16     6
    5    58    48
    6    26    16
    7    31    21
    8    52    42
    9    32    22
   10    59    49
   11    55    45
   12    47    37
   13    53    43
   14    17     7
   15    55    45
   16    25    15
   17    15     5
   18    56    46
   19    12     2
   20    32    22
   21    19     9
   22    51    41
   23    11     1
   24    19     9
   25    32    22
   26    27    17
   27    54    44
   28    58    48
   29    48    38
   30    17     7
   31    34    24
   32    54    44
   33    25    15
   34    44    34
   35    42    32
   36    26    16
   37    27    17
   38    54    44
   39    44    34
   40    53    43
   41    59    49
   42    43    33
   43    43    33
   44    41    31
   45    42    32
   46    38    28
   47    32    22
   48    60    50
   49    34    24
   50    27    17
   51    48    38
   52    34    24
   53    16     6
   54    30    20
   55    55    45
   56    29    19
   57    55    45
   58    54    44
   59    39    29
   60    56    46
   61    59    49
   62    57    47
   63    37    27
   64    26    16
   65    57    47
   66    18     8
   67    29    19
   68    49    39
   69    52    42
   70    17     7
   71    17     7
   72    29    19
   73    32    22
   74    47    37
   75    30    20
   76    41    31
   77    58    48
   78    36    26
   79    60    50
   80    47    37
   81    55    45
   82    32    22
   83    27    17
   84    23    13
   85    32    22
   86    41    31
   87    55    45
   88    53    43
   89    23    13
   90    18     8
   91    58    48
   92    13     3
   93    47    37
   94    24    14
   95    33    23
   96    46    36
   97    39    29
   98    34    24
   99    34    24
  100    49    39
  101    50    40
  102    39    29
  103    14     4
  104    52    42
  105    27    17
  106    49    39
  107    56    46
  108    51    41
  109    20    10
  110    56    46
  111    13     3
  112    54    44
  113    51    41
  114    26    16
  115    34    24
  116    34    24
  117    40    30
  118    18     8
  119    48    38
  120    21    11
  121    50    40
  122    60    50
  123    50    40
  124    24    14
  125    59    49
  126    49    39
  127    56    46
  128    11     1
  129    25    15
  130    26    16
  131    38    28
  132    49    39
  133    30    20
  134    43    33
  135    46    36
  136    35    25
  137    32    22
  138    54    44
  139    11     1
  140    59    49
  141    33    23
  142    23    13
  143    41    31
  144    39    29
  145    18     8
  146    21    11
  147    45    35
  148    25    15
  149    13     3
  150    46    36
  151    52    42
  152    46    36
  153    52    42
  154    46    36
  155    35    25
  156    49    39
  157    46    36
  158    34    24
  159    22    12
  160    51    41
  161    19     9
  162    51    41
  163    23    13
  164    50    40
  165    48    38
  166    41    31
  167    39    29
  168    24    14
  169    47    37
  170    27    17
  171    29    19
  172    32    22
  173    21    11
  174    28    18
  175    56    46
  176    29    19
  177    52    42
  178    16     6
  179    21    11
  180    42    32
  181    24    14
  182    16     6
  183    46    36
  184    11     1
  185    40    30
  186    45    35
  187    59    49
  188    12     2
  189    54    44
  190    60    50
  191    59    49
  192    54    44
  193    51    41
  194    47    37
  195    40    30
  196    34    24
  197    58    48
  198    52    42
  199    50    40
  200    34    24
  201    35    25
  202    20    10
  203    36    26
  204    57    47
  205    32    22
  206    20    10
  207    26    16
  208    59    49
  209    11     1
  210    29    19
  211    58    48
  212    23    13
  213    45    35
  214    18     8
  215    16     6
  216    14     4
  217    24    14
  218    28    18
  219    43    33
  220    38    28
  221    60    50
  222    47    37
  223    31    21
  224    56    46
  225    17     7
  226    13     3
  227    33    23
  228    31    21
  229    21    11
  230    22    12
  231    26    16
  232    57    47
  233    19     9
  234    51    41
  235    55    45
  236    39    29
  237    53    43
  238    36    26
  239    22    12
  240    57    47
  241    45    35
  242    29    19
  243    20    10
  244    30    20
  245    41    31
  246    44    34
  247    44    34
  248    33    23
  249    13     3
  250    55    45
  251    20    10
  252    28    18
  253    59    49
  254    32    22
  255    51    41
  256    18     8
  257    32    22
  258    43    33
  259    37    27
  260    18     8
  261    19     9
  262    30    20
  263    17     7
  264    43    33
  265    18     8
  266    58    48
  267    30    20
  268    40    30
  269    40    30
  270    29    19
  271    18     8
  272    13     3
  273    21    11
  274    30    20
  275    60    50
  276    19     9
  277    49    39
  278    47    37
  279    32    22
  280    35    25
  281    45    35
  282    40    30
  283    30    20
  284    14     4
  285    49    39
  286    51    41
  287    29    19
  288    39    29
  289    53    43
  290    36    26
  291    32    22
  292    22    12
  293    38    28
  294    49    39
  295    21    11
  296    53    43
  297    48    38
  298    26    16
  299    58    48
  300    48    38
  301    57    47
  302    20    10
  303    26    16
  304    16     6
  305    51    41
  306    19     9
  307    48    38
  308    41    31
  309    55    45
  310    14     4
  311    36    26
  312    30    20
  313    56    46
  314    13     3
  315    59    49
  316    35    25
  317    15     5
  318    41    31
  319    53    43
  320    25    15
  321    47    37
  322    48    38
  323    50    40
  324    19     9
  325    24    14
  326    28    18
  327    25    15
  328    43    33
  329    45    35
  330    42    32
  331    24    14
  332    17     7
  333    20    10
  334    51    41
  335    53    43
  336    36    26
  337    23    13
  338    56    46
  339    19     9
  340    37    27
  341    20    10
  342    18     8
  343    21    11
  344    46    36
  345    22    12
  346    44    34
  347    19     9
  348    18     8
  349    20    10
  350    39    29
  351    28    18
  352    50    40
  353    58    48
  354    45    35
  355    25    15
  356    34    24
  357    36    26
  358    36    26
  359    51    41
  360    22    12
  361    49    39
  362    49    39
  363    54    44
  364    31    21
  365    16     6
  366    35    25
  367    50    40
  368    27    17
  369    38    28
  370    11     1
  371    31    21
  372    53    43
  373    42    32
  374    59    49
  375    59    49
  376    12     2
  377    47    37
  378    19     9
  379    47    37
  380    27    17
  381    32    22
  382    16     6
  383    32    22
  384    43    33
  385    58    48
  386    27    17
  387    16     6
  388    26    16
  389    21    11
  390    40    30
  391    45    35
  392    35    25
  393    35    25
  394    40    30
  395    33    23
  396    22    12
  397    24    14
  398    26    16
  399    53    43
  400    26    16
  401    42    32
  402    58    48
  403    12     2
  404    51    41
  405    50    40
  406    24    14
  407    36    26
  408    14     4
  409    22    12
  410    36    26
  411    12     2
  412    32    22
  413    14     4
  414    41    31
  415    21    11
  416    53    43
  417    33    23
  418    60    50
  419    13     3
  420    37    27
  421    60    50
  422    27    17
  423    37    27
  424    15     5
  425    30    20
  426    23    13
  427    12     2
  428    23    13
  429    13     3
  430    51    41
  431    41    31
  432    58    48
  433    20    10
  434    19     9
  435    35    25
  436    55    45
  437    29    19
  438    41    31
  439    28    18
  440    35    25
  441    37    27
  442    43    33
  443    22    12
  444    48    38
  445    51    41
  446    33    23
  447    15     5
  448    26    16
  449    17     7
  450    30    20
  451    15     5
  452    25    15
  453    27    17
  454    20    10
  455    39    29
  456    21    11
  457    45    35
  458    32    22
  459    56    46
  460    48    38
  461    17     7
  462    24    14
  463    34    24
  464    53    43
  465    32    22
  466    16     6
  467    50    40
  468    17     7
  469    35    25
  470    49    39
  471    11     1
  472    12     2
  473    51    41
  474    52    42
  475    37    27
  476    20    10
  477    40    30
  478    17     7
  479    42    32
  480    42    32
  481    13     3
  482    47    37
  483    53    43
  484    53    43
  485    25    15
  486    24    14
  487    43    33
  488    46    36
  489    24    14
  490    47    37
  491    26    16
  492    12     2
  493    23    13
  494    32    22
  495    47    37
  496    23    13
  497    16     6
  498    11     1
  499    44    34
  500    37    27
2159
